; benchmark generated from python API
(set-info :status unknown)
(declare-datatypes ((RealState 0)) (((RMk1 (rval1 Real)) (RMk2 (rval2 Real)))))
 (assert
 (forall ((|v17:0| Real) )(forall ((|v16:1| Real) )(forall ((|v15:2| Real) )(forall ((|v14:3| Real) )(forall ((|v13:4| Real) )(forall ((|v12:5| Real) )(exists ((|v11:6_st| RealState) (val!7872 Real) )(exists ((|v10:7_st| RealState) (val!7873 Real) )(exists ((|v9:8_st| RealState) (val!7874 Real) )(exists ((|v8:9_st| RealState) (val!7875 Real) )(exists ((|v7:10_st| RealState) (val!7876 Real) )(exists ((|v6:11_st| RealState) (val!7877 Real) )(forall ((|v5:12| Real) )(forall ((|v4:13| Real) )(forall ((|v3:14| Real) )(forall ((|v2:15| Real) )(forall ((|v1:16| Real) )(forall ((|v0:17| Real) )(let ((?x2836 (- 4.0)))
 (let ((?x3307 (+ (+ (+ (* (- 9.0) |v2:15|) (* (- 10.0) |v0:17|)) (* 10.0 |v0:17|)) (* (- 17.0) |v0:17|))))
 (let (($x2014 (<= ?x3307 ?x2836)))
 (let ((?x2569 (rval2 |v10:7_st|)))
 (let ((?x204 (- 15.0)))
 (let ((?x242 (* ?x204 ?x2569)))
 (let (($x981 (<= (+ (+ (+ ?x242 (* (- 1.0) ?x2569)) ?x242) (* 16.0 ?x2569)) 20.0)))
 (let ((?x818 (* 7.0 |v15:2|)))
 (let ((?x1905 (+ (+ (+ (* ?x2836 (rval2 |v8:9_st|)) (* 14.0 (rval2 |v11:6_st|))) ?x818) (* 12.0 (rval2 |v8:9_st|)))))
 (let ((?x3477 (rval2 |v9:8_st|)))
 (let ((?x1348 (* 8.0 ?x3477)))
 (let ((?x2934 (+ (+ (+ (* 20.0 |v2:15|) (* 5.0 (rval2 |v6:11_st|))) (* 8.0 ?x2569)) ?x1348)))
 (let ((?x985 (- 6.0)))
 (let ((?x2940 (* 14.0 |v5:12|)))
 (let ((?x1322 (+ (+ (+ (* (- 1.0) ?x3477) (* 18.0 ?x2569)) (* 13.0 |v14:3|)) ?x2940)))
 (let ((?x1175 (* 4.0 |v1:16|)))
 (let ((?x1963 (+ (+ (+ (* (- 13.0) ?x3477) (* 10.0 |v3:14|)) (* 7.0 |v16:1|)) ?x1175)))
 (let ((?x1375 (- 2.0)))
 (let ((?x2985 (* 18.0 |v13:4|)))
 (let ((?x3433 (+ (+ (+ (* (- 11.0) |v0:17|) (* 12.0 |v17:0|)) (* 11.0 |v15:2|)) ?x2985)))
 (let (($x3245 (and (<= (+ (+ (+ (* 18.0 |v2:15|) (* ?x985 |v0:17|)) ?x818) |v2:15|) ?x204) (<= ?x3433 ?x1375))))
 (let (($x76 (and (or $x3245 (or (<= ?x1963 11.0) (<= ?x1322 ?x985))) (and (or (<= ?x2934 12.0) (<= ?x1905 19.0)) (or $x981 $x2014)))))
 (let ((?x46 (- 20.0)))
 (let ((?x270 (- 10.0)))
 (let ((?x1513 (* ?x270 |v4:13|)))
 (let ((?x3014 (+ (+ (+ (* 5.0 ?x2569) (* 5.0 |v1:16|)) (* (- 1.0) |v14:3|)) ?x1513)))
 (let ((?x562 (- 13.0)))
 (let ((?x1191 (* 2.0 ?x3477)))
 (let ((?x3337 (+ (+ (+ (* ?x2836 (rval2 |v6:11_st|)) (* ?x204 (rval2 |v6:11_st|))) (* 3.0 |v4:13|)) ?x1191)))
 (let ((?x339 (- 18.0)))
 (let ((?x3015 (* ?x339 |v0:17|)))
 (let ((?x3341 (+ (+ (+ (* 10.0 |v0:17|) (* 13.0 |v4:13|)) (* 0.0 (rval2 |v6:11_st|))) ?x3015)))
 (let ((?x1089 (+ (+ (+ (* (- 1.0) |v13:4|) (* 6.0 |v2:15|)) (* 2.0 |v4:13|)) (* 0.0 |v12:5|))))
 (let (($x3237 (or (or (<= ?x1089 13.0) (<= ?x3341 14.0)) (and (<= ?x3337 ?x562) (<= ?x3014 ?x46)))))
 (let ((?x3416 (- 14.0)))
 (let ((?x1261 (* ?x3416 |v5:12|)))
 (let (($x411 (<= (+ (+ (+ (* (- 1.0) |v4:13|) |v0:17|) (* ?x204 (rval2 |v11:6_st|))) ?x1261) 4.0)))
 (let ((?x1808 (+ (+ (* (- 12.0) (rval2 |v6:11_st|)) (* (- 16.0) |v3:14|)) (* 7.0 |v12:5|))))
 (let ((?x1740 (* 2.0 |v14:3|)))
 (let (($x2337 (<= (+ (+ (+ (* 0.0 |v3:14|) (* ?x1375 |v17:0|)) (* ?x204 |v4:13|)) ?x1740) 2.0)))
 (let (($x2642 (or (or (and $x2337 (<= (+ ?x1808 (* ?x1375 (rval2 |v6:11_st|))) 16.0)) $x411) $x3237)))
 (let ((?x359 (- 9.0)))
 (let ((?x1102 (+ (+ (+ (* 14.0 |v14:3|) (* ?x204 |v13:4|)) (* (- 12.0) |v12:5|)) (* (- 16.0) (rval2 |v7:10_st|)))))
 (let ((?x540 (- 7.0)))
 (let ((?x2787 (* ?x339 |v4:13|)))
 (let ((?x253 (+ (+ (+ (* ?x46 ?x3477) (* 15.0 |v0:17|)) (* 3.0 (rval2 |v11:6_st|))) ?x2787)))
 (let ((?x723 (+ (+ (+ (* (- 8.0) |v2:15|) ?x3477) (* (- 5.0) |v16:1|)) (* ?x1375 |v16:1|))))
 (let ((?x2152 (+ (+ (+ (* ?x3416 (rval2 |v6:11_st|)) (* 3.0 |v13:4|)) (* ?x204 (rval2 |v11:6_st|))) (* 14.0 |v16:1|))))
 (let (($x3276 (or (or (<= ?x2152 16.0) (<= ?x723 6.0)) (or (<= ?x253 ?x540) (<= ?x1102 ?x359)))))
 (let ((?x2924 (+ (+ (+ (* ?x204 (rval2 |v8:9_st|)) (* ?x339 |v1:16|)) (* 2.0 |v0:17|)) (* ?x562 |v13:4|))))
 (let ((?x464 (rval2 |v11:6_st|)))
 (let ((?x1811 (* 9.0 ?x464)))
 (let ((?x3419 (+ (+ (+ (* (- 11.0) ?x2569) (* 4.0 |v12:5|)) (* (- 3.0) |v5:12|)) ?x1811)))
 (let ((?x554 (- 19.0)))
 (let (($x2928 (<= (+ (+ (+ (* 18.0 |v4:13|) (* 18.0 |v15:2|)) (* 16.0 |v13:4|)) ?x3015) ?x554)))
 (let ((?x3322 (* 3.0 |v1:16|)))
 (let (($x217 (<= (+ (+ (+ (* 16.0 |v14:3|) (* ?x985 |v3:14|)) (* ?x339 |v17:0|)) ?x3322) ?x204)))
 (let (($x1434 (and (and (or $x217 $x2928) (or (<= ?x3419 0.0) (<= ?x2924 7.0))) $x3276)))
 (let ((?x2533 (+ (+ (+ (* ?x2836 |v13:4|) (* 11.0 (rval2 |v8:9_st|))) (* 11.0 ?x464)) (* ?x270 (rval2 |v8:9_st|)))))
 (let ((?x2297 (+ (+ (+ (* 11.0 ?x3477) (* (- 12.0) |v4:13|)) (* (- 1.0) |v17:0|)) (* 9.0 |v17:0|))))
 (let ((?x1483 (* 2.0 |v1:16|)))
 (let ((?x1569 (+ (+ (+ (* (- 5.0) |v5:12|) (* ?x46 (rval2 |v8:9_st|))) (* 12.0 ?x464)) ?x1483)))
 (let ((?x1957 (+ (+ (+ (* ?x204 |v4:13|) (* 8.0 |v4:13|)) (* 4.0 |v13:4|)) (* ?x985 |v16:1|))))
 (let ((?x2551 (rval2 |v6:11_st|)))
 (let ((?x762 (- 11.0)))
 (let ((?x183 (* ?x762 ?x2551)))
 (let (($x1799 (<= (+ (+ (+ (* 5.0 ?x464) (* ?x359 ?x2569)) (* 10.0 |v14:3|)) ?x183) 11.0)))
 (let ((?x1745 (rval2 |v7:10_st|)))
 (let ((?x455 (* ?x562 ?x1745)))
 (let ((?x2921 (+ (+ (+ (* (- 12.0) ?x1745) (* (- 17.0) ?x464)) ?x455) (* ?x1375 |v12:5|))))
 (let ((?x1069 (+ (+ (+ (* 4.0 ?x1745) (* ?x3416 |v17:0|)) (* (- 17.0) |v3:14|)) (* ?x204 |v14:3|))))
 (let (($x1889 (and (and (<= ?x1069 ?x540) (<= ?x2921 12.0)) (or $x1799 (<= ?x1957 1.0)))))
 (let (($x3030 (or (or $x1889 (or (<= ?x1569 ?x1375) (and (<= ?x2297 20.0) (<= ?x2533 ?x339)))) $x1434)))
 (let ((?x1345 (+ (+ (+ (* 16.0 |v13:4|) (* ?x540 |v17:0|)) (* 17.0 ?x2569)) (* 19.0 ?x2551))))
 (let (($x1007 (<= (+ (+ (+ ?x455 (* ?x540 ?x2551)) (* 10.0 |v0:17|)) (* (- 3.0) |v16:1|)) 16.0)))
 (let ((?x505 (- 3.0)))
 (let ((?x228 (- 12.0)))
 (let ((?x3501 (* ?x228 |v4:13|)))
 (let (($x1455 (<= (+ (+ (+ (* ?x505 |v13:4|) (* ?x554 |v14:3|)) (* (- 16.0) |v0:17|)) ?x3501) ?x505)))
 (let ((?x2219 (+ (+ (+ (* ?x204 ?x464) (* 13.0 |v1:16|)) (* 14.0 ?x3477)) (* 4.0 ?x464))))
 (let ((?x673 (+ (+ (+ (* ?x3416 |v2:15|) (* 16.0 |v2:15|)) (* 10.0 |v17:0|)) (* ?x762 |v17:0|))))
 (let ((?x2421 (- 5.0)))
 (let ((?x1642 (- 8.0)))
 (let ((?x1472 (* ?x1642 ?x464)))
 (let (($x1181 (<= (+ (+ (+ (* ?x1642 |v5:12|) (* (- 1.0) |v16:1|)) ?x1472) (* ?x1375 |v14:3|)) ?x2421)))
 (let ((?x811 (+ (+ (+ (* 13.0 |v14:3|) (* 20.0 |v16:1|)) (* ?x3416 |v15:2|)) (* ?x985 ?x464))))
 (let (($x881 (or (or (<= ?x811 ?x540) $x1181) (and (<= ?x673 16.0) (<= ?x2219 16.0)))))
 (let (($x2193 (<= (+ (+ (+ (* 5.0 |v13:4|) (* 17.0 ?x3477)) ?x2985) (* ?x1375 |v5:12|)) ?x505)))
 (let ((?x1561 (+ (+ (+ (* (- 17.0) |v16:1|) (* 5.0 |v5:12|)) (* 13.0 |v0:17|)) ?x1472)))
 (let ((?x2708 (* ?x359 |v5:12|)))
 (let (($x309 (<= (+ (+ (+ (* 15.0 ?x1745) (* ?x46 ?x2551)) (* 11.0 |v13:4|)) ?x2708) 6.0)))
 (let (($x939 (<= (+ (+ (+ (* ?x228 ?x2569) ?x2551) (* (- 17.0) |v13:4|)) (* 10.0 |v0:17|)) 16.0)))
 (let ((?x3332 (* 6.0 |v4:13|)))
 (let (($x1783 (<= (+ (+ (+ (* ?x540 ?x2551) (* ?x762 ?x2569)) (* ?x1375 |v1:16|)) ?x3332) 10.0)))
 (let ((?x3284 (* 19.0 ?x3477)))
 (let (($x2428 (<= (+ (+ (+ (* 6.0 |v15:2|) (* ?x985 |v14:3|)) (* 12.0 ?x2551)) ?x3284) ?x228)))
 (let ((?x1311 (+ (+ (+ ?x2985 (* (- 16.0) |v1:16|)) (* ?x1642 (rval2 |v8:9_st|))) (* ?x562 ?x2551))))
 (let ((?x3365 (+ (+ (+ (* ?x339 ?x1745) (* (- 16.0) |v17:0|)) (* ?x1375 |v15:2|)) (* ?x2836 |v17:0|))))
 (let (($x1384 (or (and (or (<= ?x3365 ?x554) (<= ?x1311 13.0)) (or $x2428 $x1783)) (or (and $x939 $x309) (or (<= ?x1561 ?x204) $x2193)))))
 (let (($x2778 (<= (+ (+ (+ (* 4.0 |v17:0|) (* 10.0 |v13:4|)) ?x183) (* ?x3416 |v4:13|)) 15.0)))
 (let ((?x2719 (+ (+ (+ (* ?x1375 (rval2 |v8:9_st|)) (* 13.0 |v14:3|)) (* 12.0 ?x3477)) (* ?x46 |v15:2|))))
 (let ((?x1853 (+ (+ (+ (* 19.0 |v17:0|) (* (- 1.0) |v13:4|)) (* ?x339 |v13:4|)) (* ?x985 ?x2551))))
 (let ((?x1083 (+ (+ (+ (* 2.0 |v17:0|) (* ?x540 |v16:1|)) (* (- 17.0) |v13:4|)) (* ?x359 ?x1745))))
 (let (($x2122 (and (and (<= ?x1083 4.0) (<= ?x1853 13.0)) (and (<= ?x2719 ?x46) $x2778))))
 (let (($x395 (<= (+ (+ (+ ?x3015 (* 14.0 ?x3477)) (* ?x228 ?x3477)) (* ?x3416 |v3:14|)) 19.0)))
 (let ((?x84 (* 9.0 |v1:16|)))
 (let (($x1835 (<= (+ (+ (+ (* ?x505 |v3:14|) (* 19.0 |v0:17|)) (* 8.0 |v12:5|)) ?x84) ?x228)))
 (let ((?x1436 (* 17.0 |v16:1|)))
 (let ((?x1645 (* 16.0 |v5:12|)))
 (let ((?x1356 (+ (+ (* 15.0 |v2:15|) (* ?x540 |v0:17|)) ?x1645)))
 (let ((?x3290 (* ?x228 ?x2551)))
 (let (($x582 (<= (+ (+ (+ (* ?x505 |v1:16|) (* 13.0 |v16:1|)) (* 8.0 |v4:13|)) ?x3290) ?x1642)))
 (let ((?x3236 (- 1.0)))
 (let ((?x1824 (* 7.0 |v14:3|)))
 (let (($x794 (<= (+ (+ (+ (* 12.0 |v17:0|) (* ?x204 |v16:1|)) (* (- 17.0) |v16:1|)) ?x1824) ?x3236)))
 (let ((?x3304 (* 17.0 ?x2569)))
 (let (($x928 (<= (+ (+ (+ (* ?x505 |v0:17|) (* 18.0 ?x1745)) (* ?x46 ?x464)) ?x3304) 9.0)))
 (let ((?x938 (+ (+ (+ (* 5.0 |v17:0|) (* 18.0 |v14:3|)) (* 4.0 |v5:12|)) (* ?x270 ?x464))))
 (let (($x3356 (<= (+ (+ (+ (* ?x359 |v1:16|) (* 17.0 ?x3477)) (* 18.0 |v16:1|)) |v16:1|) 13.0)))
 (let ((?x3320 (* 7.0 ?x3477)))
 (let (($x2807 (<= (+ (+ (+ (* ?x339 |v15:2|) (* 12.0 ?x464)) (* ?x3236 |v14:3|)) ?x3320) ?x562)))
 (let ((?x2205 (* ?x554 |v2:15|)))
 (let (($x3363 (<= (+ (+ (+ (* 8.0 |v1:16|) (* 4.0 ?x3477)) (* 10.0 |v15:2|)) ?x2205) ?x359)))
 (let ((?x79 (* 10.0 |v5:12|)))
 (let ((?x2521 (+ (+ (+ (* 9.0 ?x1745) (* (- 16.0) |v3:14|)) (* 10.0 |v0:17|)) ?x79)))
 (let (($x1429 (<= (+ (+ (+ (* 15.0 ?x1745) (* ?x505 |v0:17|)) (* ?x505 |v0:17|)) ?x1513) ?x1375)))
 (let (($x2992 (or (and (and $x1429 (<= ?x2521 ?x228)) (or $x3363 $x2807)) (or (or $x3356 (<= ?x938 18.0)) (or $x928 $x794)))))
 (let (($x828 (and $x2992 (or (and (or $x582 (<= (+ ?x1356 ?x1436) ?x2421)) (or $x1835 $x395)) $x2122))))
 (let (($x357 (and (or $x828 (and $x1384 (and $x881 (and (or $x1455 $x1007) (<= ?x1345 ?x339))))) (or $x3030 (and $x2642 $x76)))))
 (let (($x785 (not (= |v6:11_st| (RMk1 val!7877)))))
 (let (($x1017 (not (= |v7:10_st| (RMk1 val!7876)))))
 (let (($x2912 (not (= |v8:9_st| (RMk1 val!7875)))))
 (let (($x2702 (not (= |v9:8_st| (RMk1 val!7874)))))
 (let (($x1978 (not (= |v10:7_st| (RMk1 val!7873)))))
 (let (($x891 (not (= |v11:6_st| (RMk1 val!7872)))))
 (and $x891 $x1978 $x2702 $x2912 $x1017 $x785 $x357)))))))))))))))))))))))))))))))))))))))))))))))))))))))))))))))))))))))))))))))))))))))))))))))))))))))))))))))))))))))))))))))))))))))))
 )
 )
 )
 )
 )
 )
 )
 )
 )
 )
 )
 )
 )
 )
 )
 )
 )
 )
(check-sat)
